100 8
309 385
497 703
262 894
850 917
604 272
517 774
784 759
485 744
269 309
611 188
224 424
313 483
554 747
673 695
592 400
563 674
639 523
595 579
458 470
565 272
361 312
469 709
730 939
742 589
716 546
454 859
855 695
445 802
555 329
362 205
906 671
887 883
856 715
103 138
710 776
243 96
801 960
426 390
890 939
197 86
308 977
307 859
813 563
400 405
908 933
365 138
303 323
337 731
386 65
377 286
774 580
607 375
438 180
445 744
670 670
233 572
385 339
749 349
443 215
721 347
532 249
202 369
290 377
389 445
466 404
498 763
566 643
369 462
746 828
744 794
191 578
179 638
369 408
746 815
573 389
288 861
349 419
635 654
527 601
484 264
713 366
800 794
515 644
605 274
706 689
893 787
588 760
287 913
815 897
753 784
321 448
899 862
558 208
437 948
636 613
471 825
574 884
832 820
400 430
879 671
